$molecule
0 1
C       -0.7519862184   -0.8272338399    0.0000000000
N        0.0394753354    0.0434721365    0.0000000000
H        0.7125108830    0.7837617034    0.0000000000
$end

$rem
method                b3lyp
basis                 6-31g
unrestricted          true
jobtype               opt
scf_guess             core
scf_algorithm         diis
max_scf_cycles        100
$end

