molecule {
-1 1
C       -0.1008655880   -1.2067386037   -1.6478362950
C       -0.0425260798   -0.4918390898   -0.6704946953
H        0.0123176846    0.1684201747    0.2310933264
H       -0.1521842786   -1.8362089238   -2.5067319819
C        0.1115443298    1.3353191116    1.8230248748
N        0.1717139321    2.0310473310    2.7709447710
}

set basis 6-31g*

gradient('b3lyp')