%Mem=6GB
%NProcShared=2
%Chk=lig
# hf/6-31G(d) Force=NoStep

ethane

0 1
C                 -4.13498124    0.70342204    0.00000000
H                 -3.53650966   -0.16516720   -0.17967886
H                 -4.07172084    1.36057017   -0.84205371
H                 -5.15338585    0.41046458    0.14808100
C                 -3.62163902    1.42937832    1.25740497
H                 -3.68306794    2.48719615    1.10858318
H                 -4.22133413    1.15219316    2.09909028
H                 -2.60384227    1.15314360    1.43819258


