$molecule
0 1
O       -0.0000002839    0.0000529281   -0.0000000167
H        0.9323959515    0.0000533759    0.0000000083
H       -0.9323965202    0.0000524804    0.0000000083
$end

$rem
jobtype               force
method                hf
basis                 3-21g
unrestricted          true
$end

