molecule {
0 1
H       -0.5154110613   -2.9381384927   -2.7486829998
C       -0.4498184015   -3.1763605486   -1.7137040708
C       -0.3836841814   -3.4061783478   -0.5285994436
C       -0.3135150276   -3.5970489254    0.8156400304
N       -0.2539406146   -3.7184390245    1.9774448541
}

set basis 3-21g

gradient('hf')

