molecule {
0 1
C       0 0  0.0000000
N       0 0  1.1371177
H       0 0 -1.0502281
}

set basis 3-21g

gradient('hf')
