%Mem=4GB
# hf/3-21g Force=NoStep SCF=(XQC, VeryTightLinEq)

Downloaded from PubChem

0 1
C       -0.1088786135   -0.6365107689    0.0043221797
N       -0.6393400833    0.4205359524    0.0052497842
H        0.7532921533    0.2173505627   -0.0090384091

