molecule {
0 1
C       -0.1089904932   -0.6364903516    0.0044045533
N       -0.6392758300    0.4206475569    0.0053607902
H        0.7533291579    0.2172197003   -0.0092293748
}

set basis 3-21g
gradient('hf')
