$molecule
0 1
C       -0.1088786024   -0.6365107386    0.0043221795
N       -0.6393401541    0.4205359508    0.0052497850
H        0.7532922130    0.2173505341   -0.0090384096
$end

$rem
jobtype force
exchange hf
basis 3-21g
$end
