molecule {
0 1
 C    -0.9731040000    -3.2107010000    -6.1218400000
 C    -1.8632470000    -3.1848330000    -6.9278500000
 C     0.2534440000    -2.4198420000    -4.0753700000
 C     3.6882050000    -4.1041960000    -2.7697600000
 C     0.0790640000    -3.2405750000    -5.1694400000
 C     1.4446000000    -2.8273200000    -3.4219200000
 C     1.9610140000    -3.8931900000    -4.1485500000
 C     2.1654080000    -2.4308460000    -2.2964200000
 C    -2.9475330000    -3.1556760000    -7.9086200000
 N     3.0840270000    -4.5807770000    -3.8772100000
 N     3.3048250000    -3.0836270000    -1.9700000000
 N     1.1218270000    -4.1305470000    -5.2046300000
 O    -3.1686630000    -1.8199460000    -8.3386000000
 H    -0.4057940000    -1.6148560000    -3.7778000000
 H     4.6047200000    -4.6071260000    -2.4806000000
 H    -2.6957510000    -3.7642300000    -8.7824400000
 H    -3.8751490000    -3.5374410000    -7.4715000000
 H     1.2544220000    -4.8522600000    -5.8999500000
 H    -3.4063400000    -1.3065350000    -7.5493400000
 H     1.8200648200    -1.6160802400    -1.6949261600
}

set basis sto-3g

gradient('hf')

