$molecule
0 1
H       -0.9575082015    2.1782887538   -0.6032293182
C       -0.7099429743    1.1806884027   -0.2225755019
H        0.6892765202   -2.6623472643    0.5946460271
H        0.5942540541   -1.1201000760    0.4475052446
H       -1.3964079987    0.7422871772    0.5037937367
O        0.5701957319   -1.8497733911    1.0992393553
H        0.8934446776    1.0171876589   -1.2490377953
N        0.3166881906    0.5137687387   -0.5703417483
****
H       -1.0669373437    1.8037591507   -0.6300939156
C       -0.6711892344    0.8515558641   -0.2321016111
H       -0.4703510275   -2.3412583035    1.1060374174
H        1.0827819015   -0.1062695667   -0.3352186252
H       -0.5821050013   -0.8008897004    0.8218327057
O        0.0388389117   -1.5231635669    1.0962043008
H        1.0973769176    1.3896609756   -1.1990912535
N        0.5715848762    0.7266051472   -0.6275690183
$end

$rem
exchange              b3lyp
basis                 6-31+g**
symmetry              off
incdft                false
incfock               0
sym_ignore            true
unrestricted          true
scf_convergence       8
thresh                14
jobtype               fsm
scf_guess             core
scf_guess_mix         5
scf_algorithm         diis
max_scf_cycles        100
fsm_nnode             21
fsm_ngrad             3
fsm_mode              2
fsm_opt_mode          2
$end

