%Mem=4GB
# hf/3-21g Force=NoStep SCF=(XQC, VeryTightLinEq)

Downloaded from PubChem

0 1
 C     0.0000000000     0.0000000000     0.0000000000
 N     0.0000000000     0.0000000000     1.1483800000
 H    -1.5853600000     0.0000000000     1.1483800000

