molecule {
0 1
 O     0.0000000000     0.0000000000     0.0000000000
 H     0.0000000000     0.0000000000     1.0000000000
 H     1.0000000000     0.0000000000     0.0000000000
 O     0.0000000000     0.0000000000     2.7000000000
 H     0.7000000000     0.5000000000     2.7000000000
 H    -0.7000000000     0.5000000000     2.7000000000
}

set basis 6-31g*

gradient('hf')

