$molecule
0 1
H        2.1156000000    0.5341360000   -1.1272400000
H        0.5258190000    0.8025890000    1.5985600000
H       -0.8993780000   -1.5512400000   -0.7075200000
O       -1.4149900000   -0.9598420000    1.1975300000
C        0.7193690000   -0.0970006000   -0.0090413000
O        1.1134400000    0.8542090000    0.8128530000
H       -1.6919800000    1.0561900000   -0.0343326000
O        1.4547400000   -0.1920630000   -1.0782500000
C       -0.9327710000   -0.7709280000    0.0709435000
O       -1.2410200000    0.4980310000   -0.6955090000
$end

$rem
method                b3lyp
basis                 6-31g(d)
symmetry              off
incdft                false
incfock               0
sym_ignore            true
unrestricted          true
scf_convergence       9
thresh                14
jobtype               sp
scf_guess             core
scf_algorithm         diis_gdm
max_scf_cycles        100
scf_max_cycles        300
$end

