$molecule
0 1
 C     0.0000000000     0.0000000000     0.0000000000
 N     0.0000000000     0.0000000000     1.1483800000
 H    -1.5853600000     0.0000000000     1.1483800000
$end

$rem
jobtype force
exchange hf
basis 3-21g
$end
