
molecule {
0 1
C                 0.660822223484     0.537780224504    -0.783087734283
C                -0.499831243943     1.221584651289    -0.410125874622
C                -1.398962428674     0.611346995968     0.472307393106
C                 1.039080173337    -0.649738172881    -0.142666816301
C                 2.370202570446    -1.314623027397    -0.457398290872
C                -1.104880459593    -0.643729445030     1.006205367214
C                 5.866984252712     1.160309322320     0.215359815646
C                 4.958269414691     0.926718970759     1.251282123978
C                 0.124953704571    -1.247545582527     0.734222277667
C                 3.830539337147     0.138353307645     1.030012515453
C                 3.589027975341    -0.434541989412    -0.227368852138
C                 4.505360663275    -0.191705541411    -1.256684594666
C                 5.636814523808     0.599117768838    -1.040062585537
H                 1.373193583473     1.026950960701    -1.444639693140
H                -0.542074952661     2.303003054977    -0.521473882762
H                -2.300189901300     1.135604520195     0.780309924351
H                 2.459649404950    -2.223971750923     0.151728012931
H                 2.371679615169    -1.650763149207    -1.502713589945
H                -1.803635671902    -1.125287850632     1.685677541886
H                 6.745888305329     1.775928323575     0.387391172794
H                 5.128794707038     1.360796506624     2.233238972117
H                 0.382828035372    -2.187718180061     1.217302454049
H                 3.123170516876    -0.031995334766     1.838256302436
H                 4.333766184248    -0.628441441329    -2.238307600777
H                 6.335523443694     0.775459332577    -1.853916164254
}

set basis 6-31g*

gradient('b3lyp')
