molecule {
-1 1
 C         0.848377       -0.119978        0.969417
 C        -0.702744        0.160349        1.178895
 C        -1.441969        0.304310       -0.181968
 O        -0.690054        0.521662       -1.149897
 O         1.364365        0.402401       -0.059661
 H        -0.720373        1.056458        1.826196
 H        -1.343794       -0.554760        1.809264
 H         0.436655        0.415966       -0.768728
 O        -2.660154        0.189722       -0.154346
 O         1.542284       -0.549583        1.907241
}

set basis 3-21g

gradient('hf')

