molecule {
0 1
O       -0.1725862215    2.0316049138    0.3216571867
H        0.2041425195    2.9180585216    0.1058074919
O        1.0366147892    1.2353678395    0.0332460684
H        0.8131837568    0.4200911941    0.5055185905
O        1.2681746644    4.1541641548   -0.3226793531
H        1.6684538011    3.9209478642   -1.1715076084
H        1.9593554014    4.1507961289    0.3540149586
}

set basis 3-21g

gradient('hf')

